
Gurobi 9.5.0 (win64) logging started Sat May 14 14:56:22 2022

Set parameter LogFile to value "../results/logs/log_email-enron-only_2_1_2022_05_14_14_56.log"
Set parameter LazyConstraints to value 1

Gurobi 9.5.0 (win64) logging started Sat May 14 14:56:35 2022

Set parameter LogFile to value "../results/logs/log_email-enron-only_2_1_2022_05_14_14_56.log"
Set parameter LazyConstraints to value 1
